c smth
s vc 200 137
198
196
195
194
188
185
184
182
181
180
179
178
177
176
175
174
172
170
167
166
165
160
158
157
155
153
152
150
149
147
146
144
143
142
140
138
137
136
134
133
132
131
130
128
127
126
125
123
121
120
118
117
116
115
114
112
111
109
107
106
105
104
103
102
101
99
98
97
96
93
92
91
90
88
87
86
85
83
79
78
77
76
75
74
72
71
70
69
66
65
63
61
60
59
58
56
55
54
53
52
50
48
46
45
43
42
41
40
39
38
37
36
34
33
32
31
30
29
28
27
25
23
22
21
20
18
16
15
13
12
11
9
8
7
5
3
2